125
647.0 969.0 
772.0 972.0 
747.0 891.0 
772.0 972.0 
743.0 842.0 
806.0 730.0 
806.0 730.0 
781.0 681.0 
707.0 996.0 
772.0 972.0 
747.0 891.0 
772.0 972.0 
655.0 735.0 
743.0 842.0 
806.0 730.0 
806.0 730.0 
707.0 996.0 
772.0 972.0 
747.0 891.0 
772.0 972.0 
743.0 842.0 
806.0 730.0 
806.0 730.0 
772.0 972.0 
747.0 891.0 
772.0 972.0 
718.0 970.0 
718.0 761.0 
743.0 842.0 
806.0 730.0 
806.0 730.0 
847.0 747.0 
772.0 972.0 
747.0 891.0 
772.0 972.0 
743.0 842.0 
806.0 730.0 
806.0 730.0 
684.0 962.0 
772.0 972.0 
747.0 891.0 
772.0 972.0 
655.0 735.0 
743.0 842.0 
806.0 730.0 
806.0 730.0 
847.0 747.0 
772.0 972.0 
747.0 891.0 
772.0 972.0 
743.0 842.0 
806.0 730.0 
806.0 730.0 
847.0 747.0 
747.0 891.0 
772.0 972.0 
772.0 972.0 
655.0 735.0 
806.0 730.0 
806.0 730.0 
847.0 747.0 
772.0 972.0 
772.0 972.0 
747.0 891.0 
743.0 842.0 
806.0 730.0 
806.0 730.0 
747.0 891.0 
772.0 972.0 
772.0 972.0 
655.0 735.0 
743.0 842.0 
806.0 730.0 
806.0 730.0 
847.0 747.0 
743.0 842.0 
806.0 730.0 
806.0 730.0 
747.0 891.0 
772.0 972.0 
772.0 972.0 
655.0 735.0 
806.0 730.0 
806.0 730.0 
743.0 842.0 
806.0 730.0 
806.0 730.0 
718.0 761.0 
806.0 730.0 
806.0 730.0 
718.0 761.0 
806.0 730.0 
806.0 730.0 
747.0 891.0 
655.0 735.0 
772.0 972.0 
772.0 972.0 
806.0 730.0 
806.0 730.0 
743.0 842.0 
686.0 869.0 
758.0 852.0 
732.0 790.0 
806.0 730.0 
806.0 730.0 
747.0 891.0 
772.0 972.0 
772.0 972.0 
655.0 735.0 
806.0 730.0 
806.0 730.0 
747.0 891.0 
772.0 972.0 
772.0 972.0 
655.0 735.0 
806.0 730.0 
806.0 730.0 
847.0 747.0 
747.0 891.0 
655.0 735.0 
772.0 972.0 
772.0 972.0 
806.0 730.0 
806.0 730.0 
743.0 842.0 

0 479 84 475 471 183 467 469 470 116 478 80 82 486 484 0 
0 321 484 84 82 80 478 116 470 469 467 471 472 475 479 0 
0 321 484 82 80 478 116 470 469 467 471 472 475 479 0 
0 321 484 84 82 80 478 116 470 467 469 471 472 475 479 0 
0 321 78 489 80 478 116 470 469 467 471 472 475 84 0 
0 321 477 78 489 80 81 478 116 470 467 469 471 472 0 
0 321 477 78 489 80 81 478 116 470 469 467 471 472 0 
0 321 477 78 489 80 478 116 470 467 469 471 472 0 
0 321 489 80 478 116 470 467 469 183 471 475 84 82 484 0 
0 321 484 84 82 80 478 116 470 469 467 471 472 475 479 0 
0 321 484 82 80 478 116 470 469 467 471 472 475 479 0 
0 321 484 84 82 80 478 116 470 467 469 471 472 475 479 0 
0 321 484 82 80 478 116 470 467 469 471 472 0 
0 321 78 489 80 478 116 470 469 467 471 472 475 84 0 
0 321 477 78 489 80 81 478 116 470 469 467 471 472 0 
0 321 477 78 489 80 81 478 116 470 467 469 471 472 0 
0 321 489 80 478 116 470 469 467 183 471 475 84 82 484 0 
0 321 484 84 82 80 478 116 470 469 467 471 472 475 479 0 
0 321 484 82 80 478 116 470 469 467 471 472 475 479 0 
0 321 484 84 82 80 478 116 470 467 469 471 472 475 479 0 
0 321 78 489 80 478 116 470 469 467 471 472 475 84 0 
0 321 477 78 489 80 81 478 116 470 467 469 471 472 0 
0 321 477 78 489 80 81 478 116 470 469 467 471 472 0 
0 321 484 84 82 80 478 116 470 469 467 471 472 475 479 0 
0 321 484 82 80 478 116 470 469 467 471 472 475 479 0 
0 321 484 84 82 80 478 116 470 467 469 471 472 475 479 0 
0 479 84 475 472 471 183 467 469 470 116 478 80 82 321 0 
0 321 78 489 80 478 116 470 467 469 471 472 475 0 
0 321 78 489 80 478 116 470 469 467 471 472 475 84 0 
0 321 477 78 489 80 81 478 116 470 467 469 471 472 0 
0 321 477 78 489 80 81 478 116 470 469 467 471 472 0 
0 321 484 477 78 489 80 478 116 470 467 469 471 472 0 
0 321 484 84 82 80 478 116 470 469 467 471 472 475 479 0 
0 321 484 82 80 478 116 470 469 467 471 472 475 479 0 
0 321 484 84 82 80 478 116 470 467 469 471 472 475 479 0 
0 321 78 489 80 478 116 470 469 467 471 472 475 84 0 
0 321 477 78 489 80 81 478 116 470 469 467 471 472 0 
0 321 477 78 489 80 81 478 116 470 467 469 471 472 0 
0 84 475 472 473 471 183 467 469 470 116 478 80 82 484 0 
0 321 484 84 82 80 478 116 470 467 469 471 472 475 479 0 
0 321 484 82 80 478 116 470 469 467 471 472 475 479 0 
0 321 484 84 82 80 478 116 470 469 467 471 472 475 479 0 
0 321 484 82 80 478 116 470 467 469 471 472 0 
0 321 78 489 80 478 116 470 469 467 471 472 475 84 0 
0 321 477 78 489 80 81 478 116 470 469 467 471 472 0 
0 321 477 78 489 80 81 478 116 470 467 469 471 472 0 
0 321 484 477 78 489 80 478 116 470 467 469 471 472 0 
0 321 484 84 82 80 478 116 470 469 467 471 472 475 479 0 
0 321 484 82 80 478 116 470 469 467 471 472 475 479 0 
0 321 484 84 82 80 478 116 470 467 469 471 472 475 479 0 
0 321 78 489 80 478 116 470 469 467 471 472 475 84 0 
0 321 477 78 489 80 81 478 116 470 469 467 471 472 0 
0 321 477 78 489 80 81 478 116 470 467 469 471 472 0 
0 321 484 477 78 489 80 478 116 470 469 467 471 472 0 
0 321 484 82 80 478 116 470 469 467 471 472 475 479 0 
0 321 484 84 82 80 478 116 470 469 467 471 472 475 479 0 
0 321 484 84 82 80 478 116 470 467 469 471 472 475 479 0 
0 321 484 82 80 478 116 470 467 469 471 472 0 
0 321 477 78 489 80 81 478 116 470 469 467 471 472 0 
0 321 477 78 489 80 81 478 116 470 467 469 471 472 0 
0 321 484 477 78 489 80 478 116 470 469 467 471 472 0 
0 321 484 84 82 80 478 116 470 469 467 471 472 475 479 0 
0 321 484 84 82 80 478 116 470 467 469 471 472 475 479 0 
0 321 484 82 80 478 116 470 469 467 471 472 475 479 0 
0 321 78 489 80 478 116 470 469 467 471 472 475 84 0 
0 321 477 78 489 80 81 478 116 470 469 467 471 472 0 
0 321 477 78 489 80 81 478 116 470 467 469 471 472 0 
0 321 484 82 80 478 116 470 469 467 471 472 475 479 0 
0 321 484 84 82 80 478 116 470 469 467 471 472 475 479 0 
0 321 484 84 82 80 478 116 470 467 469 471 472 475 479 0 
0 321 484 82 80 478 116 470 467 469 471 472 0 
0 321 78 489 80 478 116 470 469 467 471 472 475 84 0 
0 321 477 78 489 80 81 478 116 470 467 469 471 472 0 
0 321 477 78 489 80 81 478 116 470 469 467 471 472 0 
0 321 484 477 78 489 80 478 116 470 469 467 471 472 0 
0 321 78 489 80 478 116 470 469 467 471 472 475 84 0 
0 321 477 78 489 80 81 478 116 470 469 467 471 472 0 
0 321 477 78 489 80 81 478 116 470 467 469 471 472 0 
0 321 484 82 80 478 116 470 469 467 471 472 475 479 0 
0 321 484 84 82 80 478 116 470 469 467 471 472 475 479 0 
0 321 484 84 82 80 478 116 470 467 469 471 472 475 479 0 
0 321 484 82 80 478 116 470 467 469 471 472 0 
0 321 477 78 489 80 81 478 116 470 469 467 471 472 0 
0 321 477 78 489 80 81 478 116 470 467 469 471 472 0 
0 321 78 489 80 478 116 470 469 467 471 472 475 84 0 
0 321 477 78 489 80 81 478 116 470 467 469 471 472 0 
0 321 477 78 489 80 81 478 116 470 469 467 471 472 0 
0 321 78 489 80 478 116 470 467 469 471 472 475 0 
0 321 477 78 489 80 81 478 116 470 467 469 471 472 0 
0 321 477 78 489 80 81 478 116 470 469 467 471 472 0 
0 321 78 489 80 478 116 470 467 469 471 472 475 0 
0 321 477 78 489 80 81 478 116 470 469 467 471 472 0 
0 321 477 78 489 80 81 478 116 470 467 469 471 472 0 
0 321 484 82 80 478 116 470 469 467 471 472 475 479 0 
0 321 484 82 80 478 116 470 467 469 471 472 0 
0 321 484 84 82 80 478 116 470 467 469 471 472 475 479 0 
0 321 484 84 82 80 478 116 470 469 467 471 472 475 479 0 
0 321 477 78 489 80 81 478 116 470 467 469 471 472 0 
0 321 477 78 489 80 81 478 116 470 469 467 471 472 0 
0 321 78 489 80 478 116 470 469 467 471 472 475 84 0 
0 321 489 80 478 116 470 469 467 183 471 472 84 82 0 
0 321 477 489 80 478 470 469 467 471 116 84 82 484 0 
0 321 477 489 80 478 470 467 469 471 116 84 484 0 
0 321 477 78 489 80 81 478 116 470 469 467 471 472 0 
0 321 477 78 489 80 81 478 116 470 467 469 471 472 0 
0 321 484 82 80 478 116 470 469 467 471 472 475 479 0 
0 321 484 84 82 80 478 116 470 469 467 471 472 475 479 0 
0 321 484 84 82 80 478 116 470 467 469 471 472 475 479 0 
0 321 484 82 80 478 116 470 467 469 471 472 0 
0 321 477 78 489 80 81 478 116 470 469 467 471 472 0 
0 321 477 78 489 80 81 478 116 470 467 469 471 472 0 
0 321 484 82 80 478 116 470 469 467 471 472 475 479 0 
0 321 484 84 82 80 478 116 470 469 467 471 472 475 479 0 
0 321 484 84 82 80 478 116 470 467 469 471 472 475 479 0 
0 321 484 82 80 478 116 470 467 469 471 472 0 
0 321 477 78 489 80 81 478 116 470 469 467 471 472 0 
0 321 477 78 489 80 81 478 116 470 467 469 471 472 0 
0 321 484 477 78 489 80 478 116 470 469 467 471 472 0 
0 321 484 82 80 478 116 470 469 467 471 472 475 479 0 
0 321 484 82 80 478 116 470 467 469 471 472 0 
0 321 484 84 82 80 478 116 470 467 469 471 472 475 479 0 
0 321 484 84 82 80 478 116 470 469 467 471 472 475 479 0 
0 321 477 78 489 80 81 478 116 470 467 469 471 472 0 
0 321 477 78 489 80 81 478 116 470 469 467 471 472 0 
0 321 78 489 80 478 116 470 469 467 471 472 475 84 0 
